p cnf 33 44
1 2 3 0
1 -2 6 0
-1 2 4 0
-1 -2 5 0
7 8 9 10 1 2 24 0
7 8 9 10 1 -2 11 0
7 8 9 10 -1 2 33 0
7 8 9 10 -1 -2 13 0
7 8 9 -10 1 2 12 0
7 8 9 -10 1 -2 28 0
7 8 9 -10 -1 2 13 0
7 8 9 -10 -1 -2 22 0
7 8 -9 10 1 2 14 0
7 8 -9 10 1 -2 15 0
7 8 -9 10 -1 2 23 0
7 8 -9 10 -1 -2 22 0
7 8 -9 -10 1 2 24 0
7 8 -9 -10 1 -2 16 0
7 8 -9 -10 -1 2 25 0
7 8 -9 -10 -1 -2 31 0
7 -8 9 10 1 2 21 0
7 -8 9 10 1 -2 26 0
7 -8 9 10 -1 2 17 0
7 -8 9 10 -1 -2 18 0
7 -8 9 -10 1 2 32 0
7 -8 9 -10 1 -2 29 0
7 -8 9 -10 -1 2 27 0
7 -8 9 -10 -1 -2 19 0
7 -8 -9 10 1 2 13 0
7 -8 -9 10 1 -2 13 0
7 -8 -9 10 -1 2 30 0
7 -8 -9 10 -1 -2 20 0
7 -8 -9 -10 1 2 13 0
7 -8 -9 -10 1 -2 13 0
7 -8 -9 -10 -1 2 13 0
7 -8 -9 -10 -1 -2 31 0
-7 8 9 10 1 2 13 0
-7 8 9 10 1 -2 13 0
-7 8 9 10 -1 2 33 0
-7 8 9 10 -1 -2 13 0
-7 8 9 -10 1 2 13 0
-7 8 9 -10 1 -2 13 0
-7 8 9 -10 -1 2 33 0
-7 8 9 -10 -1 -2 22 0
